sat
(:added-eqs                       34745
 :arith-eq-adapter                1326
 :arith-bound-propagations-lp     1349
 :arith-branch                    65
 :arith-conflicts                 2859
 :arith-cube-calls                18
 :arith-diseq                     6209
 :arith-fixed-eqs                 4644
 :arith-gcd-calls                 510
 :arith-gomory-cuts               8
 :arith-grobner-calls             620
 :arith-grobner-conflicts         137
 :arith-hnf-calls                 3
 :arith-horner-calls              176
 :arith-horner-conflicts          5
 :arith-horner-cross-nested-forms 22871
 :arith-lower                     15571
 :arith-make-feasible             8127
 :arith-max-columns               1196
 :arith-max-rows                  615
 :arith-nla-add-bounds            247
 :arith-nla-lemmas                1748
 :arith-nla-propagate-bounds      787
 :arith-nla-propagate-eq          14696
 :arith-nra-calls                 84
 :arith-offset-eqs                3484
 :arith-patches                   510
 :arith-patches-success           437
 :arith-upper                     17639
 :binary-propagations             71661
 :conflicts                       541
 :decisions                       134206
 :del-clause                      3504
 :final-checks                    1352
 :max-memory                      31.13
 :memory                          18.42
 :minimized-lits                  1557
 :mk-bool-var                     8884
 :mk-clause                       5516
 :mk-clause-binary                10090
 :nlsat-conflicts                 8030
 :nlsat-decisions                 120
 :nlsat-propagations              374030
 :nlsat-stages                    173794
 :num-allocs                      3605239913
 :num-checks                      1
 :propagations                    109306
 :restarts                        5
 :rlimit-count                    5411063
 :time                            2.02
 :total-time                      2.00)
